NAME : rnd79_20.tsp
TYPE : TSP
DIMENSION : 20
EDGE_WEIGHT_TYPE : EUC_2D
NODE_COORD_SECTION
0 534 350
1 477 154
2 245 394
3 263 65
4 283 605
5 356 689
6 231 966
7 488 515
8 186 629
9 765 312
10 52 562
11 806 405
12 106 846
13 982 17
14 707 710
15 954 959
16 728 992
17 370 172
18 623 962
19 708 726
